100 219
4 16 1
8 14 1
6 10 1
7 11 1
7 10 1
10 21 1
7 13 1
7 26 2
5 12 2
8 10 1
13 22 2
7 20 2
3 12 1
6 27 2
6 17 1
6 9 2
5 29 6
6 14 2
6 33 1
9 33 1
16 22 1
13 35 1
6 26 1
8 33 1
6 8 1
10 18 1
18 33 1
15 32 6
15 16 2
13 16 4
16 32 6
13 15 4
15 33 2
12 32 2
21 32 3
16 18 2
12 33 2
10 14 6
13 33 2
14 30 1
11 16 1
19 32 1
20 33 1
18 32 2
22 32 2
14 32 3
15 31 2
15 30 2
22 31 2
11 12 2
13 32 4
13 13 2
13 19 2
12 15 8
16 35 2
9 35 2
12 30 2
21 30 2
14 18 2
16 31 2
14 17 2
11 15 2
7 15 2
9 17 2
10 15 2
18 29 2
24 34 2
23 34 2
22 34 2
19 31 2
11 14 2
13 14 6
16 33 2
16 17 2
14 22 2
11 22 2
8 15 2
9 34 2
5 11 1
6 18 3
4 6 1
7 18 2
10 34 1
4 34 1
11 34 1
7 21 8
7 28 2
10 28 1
9 18 2
9 15 2
15 18 2
7 16 6
7 19 4
9 23 2
8 26 3
8 27 2
6 23 2
6 20 2
6 19 2
9 21 2
50 100 
50 100 
50 100 
50 100 
50 100 
50 100 
50 100 
50 100 
50 100 
50 100 
50 100 
50 100 
50 100 
50 100 
50 100 
50 100 
50 100 
50 100 
50 100 
50 100 
50 100 
50 100 
50 100 
50 100 
50 100 
50 100 
50 100 
50 100 
50 100 
50 100 
50 100 
50 100 
50 100 
50 100 
50 100 
50 100 
50 100 
50 100 
50 100 
50 100 
50 100 
50 100 
50 100 
50 100 
50 100 
50 100 
50 100 
50 100 
50 100 
50 100 
50 100 
50 100 
50 100 
50 100 
50 100 
50 100 
50 100 
50 100 
50 100 
50 100 
50 100 
50 100 
50 100 
50 100 
50 100 
50 100 
50 100 
50 100 
50 100 
50 100 
50 100 
50 100 
50 100 
50 100 
50 100 
50 100 
50 100 
50 100 
50 100 
50 100 
50 100 
50 100 
50 100 
50 100 
50 100 
50 100 
50 100 
50 100 
50 100 
50 100 
50 100 
50 100 
50 100 
50 100 
50 100 
50 100 
50 100 
50 100 
50 100 
50 100 
50 100 
50 100 
50 100 
50 100 
50 100 
50 100 
50 100 
50 100 
50 100 
50 100 
50 100 
50 100 
50 100 
50 100 
50 100 
50 100 
50 100 
50 100 
50 100 
50 100 
50 100 
50 100 
50 100 
50 100 
50 100 
50 100 
50 100 
50 100 
50 100 
50 100 
50 100 
50 100 
50 100 
50 100 
50 100 
50 100 
50 100 
50 100 
50 100 
50 100 
50 100 
50 100 
50 100 
50 100 
50 100 
50 100 
50 100 
50 100 
50 100 
50 100 
50 100 
50 100 
50 100 
50 100 
50 100 
50 100 
50 100 
50 100 
50 100 
50 100 
50 100 
50 100 
50 100 
50 100 
50 100 
50 100 
50 100 
50 100 
50 100 
50 100 
50 100 
50 100 
50 100 
50 100 
50 100 
50 100 
50 100 
50 100 
50 100 
50 100 
50 100 
50 100 
50 100 
50 100 
50 100 
50 100 
50 100 
50 100 
50 100 
50 100 
50 100 
50 100 
50 100 
50 100 
50 100 
50 100 
50 100 
50 100 
50 100 
50 100 
50 100 
50 100 
50 100 
50 100 
50 100 
50 100 
50 100 
50 100 
50 100 
50 100 
50 100 
50 100 
50 100 
50 100 
50 100 
50 100 
50 100 
50 100 
50 100 
